
        $ From http://www.csplib.org/Problems/prob009/data/helmut.pdf
        $ Problem number 85
        $ Sequence length : 25
        language ESSENCE' 1.0
        letting sizemaster be 320
        letting sizes be sequence(1,4,6,7,8,13,14,16,24,28,30,33,34,38,41,42,57,60,69,78,81,90,92,150,170)
        